treewidth/data/SwitchedSquaredSkewHadamardMatrixGraph_2.gr
p tw 50 525
1 48
1 3
1 5
1 6
1 7
1 10
1 12
1 14
1 18
1 20
1 21
1 23
1 25
1 27
1 33
1 36
1 37
1 41
1 43
1 44
1 45
2 48
2 49
2 4
2 6
2 7
2 8
2 11
2 14
2 15
2 19
2 21
2 25
2 26
2 28
2 30
2 34
2 37
2 38
2 42
2 44
2 45
13 48
13 49
13 50
13 5
13 7
13 8
13 9
13 12
13 15
13 16
13 20
13 26
13 27
13 29
13 30
13 31
13 36
13 38
13 39
13 43
13 45
24 49
24 50
24 3
24 6
24 8
24 9
24 10
24 14
24 16
24 17
24 21
24 22
24 27
24 28
24 31
24 32
24 37
24 39
24 40
24 44
24 45
35 48
35 50
35 3
35 4
35 7
35 9
35 10
35 11
35 15
35 17
35 18
35 23
35 28
35 29
35 30
35 32
35 33
35 38
35 40
35 41
35 45
46 49
46 3
46 4
46 5
46 8
46 10
46 11
46 12
46 16
46 18
46 19
46 22
46 25
46 29
46 31
46 33
46 34
46 39
46 41
46 42
46 45
47 50
47 4
47 5
47 6
47 9
47 11
47 12
47 14
47 17
47 19
47 20
47 22
47 23
47 26
47 32
47 34
47 36
47 40
47 42
47 43
47 45
48 7
48 10
48 12
48 14
48 16
48 17
48 19
48 26
48 28
48 29
48 31
48 32
48 34
48 41
48 43
48 44
48 45
49 7
49 8
49 11
49 14
49 17
49 18
49 20
49 22
49 27
49 29
49 32
49 33
49 36
49 38
49 42
49 44
49 45
50 7
50 8
50 9
50 12
50 18
50 19
50 21
50 22
50 23
50 28
50 33
50 34
50 37
50 38
50 39
50 43
50 45
3 8
3 9
3 10
3 14
3 15
3 19
3 20
3 23
3 25
3 29
3 30
3 34
3 36
3 39
3 40
3 44
3 45
4 7
4 9
4 10
4 11
4 16
4 20
4 21
4 22
4 25
4 26
4 31
4 36
4 37
4 38
4 40
4 41
4 45
5 8
5 10
5 11
5 12
5 15
5 17
5 21
5 23
5 26
5 27
5 30
5 32
5 37
5 39
5 41
5 42
5 45
6 9
6 11
6 12
6 14
6 15
6 16
6 18
6 25
6 27
6 28
6 30
6 31
6 33
6 40
6 42
6 43
6 45
7 16
7 17
7 19
7 23
7 25
7 27
7 33
7 36
7 37
7 39
7 40
7 42
7 45
8 17
8 18
8 20
8 25
8 26
8 28
8 30
8 34
8 37
8 40
8 41
8 43
8 45
9 18
9 19
9 21
9 26
9 27
9 29
9 30
9 31
9 36
9 41
9 42
9 44
9 45
10 15
10 19
10 20
10 22
10 27
10 28
10 31
10 32
10 37
10 38
10 42
10 43
10 45
11 16
11 20
11 21
11 23
11 28
11 29
11 30
11 32
11 33
11 39
11 43
11 44
11 45
12 15
12 17
12 21
12 22
12 25
12 29
12 31
12 33
12 34
12 38
12 40
12 44
12 45
14 15
14 16
14 18
14 22
14 23
14 26
14 32
14 34
14 36
14 38
14 39
14 41
14 45
15 22
15 26
15 28
15 29
15 30
15 33
15 36
15 37
15 38
15 39
15 40
15 42
16 22
16 23
16 27
16 29
16 30
16 31
16 34
16 37
16 39
16 40
16 41
16 43
17 22
17 23
17 25
17 28
17 30
17 31
17 32
17 36
17 40
17 41
17 42
17 44
18 23
18 25
18 26
18 29
18 31
18 32
18 33
18 37
18 38
18 41
18 42
18 43
19 22
19 25
19 26
19 27
19 30
19 32
19 33
19 34
19 39
19 42
19 43
19 44
20 23
20 26
20 27
20 28
20 31
20 33
20 34
20 36
20 38
20 40
20 43
20 44
21 25
21 27
21 28
21 29
21 32
21 34
21 36
21 37
21 38
21 39
21 41
21 44
22 30
22 33
22 36
22 37
22 38
22 41
22 43
22 44
23 30
23 31
23 34
23 37
23 38
23 39
23 42
23 44
25 30
25 31
25 32
25 36
25 38
25 39
25 40
25 43
26 31
26 32
26 33
26 37
26 39
26 40
26 41
26 44
27 30
27 32
27 33
27 34
27 38
27 40
27 41
27 42
28 31
28 33
28 34
28 36
28 39
28 41
28 42
28 43
29 32
29 34
29 36
29 37
29 40
29 42
29 43
29 44
30 38
30 41
30 43
30 44
31 38
31 39
31 42
31 44
32 38
32 39
32 40
32 43
33 39
33 40
33 41
33 44
34 38
34 40
34 41
34 42
36 39
36 41
36 42
36 43
37 40
37 42
37 43
37 44
