treewidth/data/SwitchedSquaredSkewHadamardMatrixGraph_2.td
c width = 38, time = 6.483821
s td 10 39 50
b 1 3 5 6 7 8 9 10 11 12 13 14 16 18 19 20 21 22 25 28 29 30 31 32 33 34 35 36 37 38 39 40 41 42 43 44 45 47 48 49
b 2 3 5 6 7 8 9 10 11 12 13 14 16 18 19 20 21 22 23 25 28 30 31 32 33 34 35 36 37 38 39 40 41 42 43 44 45 47 48 49
b 3 3 5 6 7 8 9 10 12 13 14 16 18 19 20 21 22 23 24 25 28 30 31 32 33 34 35 36 37 38 39 40 41 42 43 44 45 47 48 49
b 4 1 3 5 6 7 9 10 12 13 14 16 18 19 20 21 23 24 25 27 30 32 33 34 36 37 38 40 41 42 43 44 45 48 49
b 5 5 7 8 12 17 22 23 24 25 28 30 31 32 35 36 40 41 42 44 47 48 49
b 6 7 8 9 12 13 18 19 21 22 23 24 28 33 34 35 37 38 39 43 45 47 50
b 7 3 5 6 7 8 9 10 11 12 13 14 16 18 19 20 21 22 25 26 28 29 30 31 32 33 34 35 36 37 38 39 40 41 42 44 45 47 48 49
b 8 3 4 5 6 7 8 9 10 11 12 13 14 16 18 19 20 21 22 25 26 28 29 30 31 33 34 35 36 37 38 39 40 41 42 44 45 47 48 49
b 9 2 3 4 5 6 7 8 10 11 12 13 14 15 19 21 22 25 26 28 29 30 33 34 35 36 37 38 39 40 42 44 45 48 49
b 10 3 4 5 8 10 11 12 16 18 19 22 25 29 31 33 34 39 41 42 45 46 49
3 4
3 5
3 6
2 3
1 2
8 9
8 10
7 8
1 7
